RT is False
Default write of storage_offers_DA.csv just to have a file (but constraint should be inactive)
Reading model...
...model read.
creating competitive generators file...
...competitive generators recorded.
Loading data...
.. day-ahead data with real-time VRE data read.
Compiling instance...
...instance created.
Creating Offer Mitigation (model will solve as dispatch if TRUE)...
Solving...

Welcome to IBM(R) ILOG(R) CPLEX(R) Interactive Optimizer 12.8.0.0
  with Simplex, Mixed Integer & Barrier Optimizers
5725-A06 5725-A29 5724-Y48 5724-Y49 5724-Y54 5724-Y55 5655-Y21
Copyright IBM Corp. 1988, 2017.  All Rights Reserved.

Type 'help' for a list of available commands.
Type 'help' followed by a command name for more
information on commands.

CPLEX> Logfile 'cplex.log' closed.
Logfile 'C:\Users\llavi\Desktop\test919\logs\tmpatdms0cf.cplex.log' open.
CPLEX> New value for parallel optimization mode: -1
CPLEX> New value for mixed integer optimality gap tolerance: 0.01
CPLEX> New value for integrality tolerance: 1e-09
CPLEX> New value for feasibility tolerance: 0.01
CPLEX> New value for deterministic time limit in ticks: 75000
CPLEX> Problem 'C:\Users\llavi\Desktop\test919\logs\tmpktu6nbmu.pyomo.lp' read.
Read time = 0.08 sec. (3.03 ticks)
CPLEX> Problem name         : C:\Users\llavi\Desktop\test919\logs\tmpktu6nbmu.pyomo.lp
Objective sense      : Minimize
Variables            :   26465  [Nneg: 1,  Box: 22000,  Free: 4464]
Objective nonzeros   :    2496
Linear constraints   :   27515  [Less: 14006,  Greater: 4416,  Equal: 9093]
  Nonzeros           :   89171
  RHS nonzeros       :   12278

Variables            : Min LB: -5000.000        Max UB: 1000000.       
Objective nonzeros   : Min   : 15.73158         Max   : 124.0997       
Linear constraints   :
  Nonzeros           : Min   : 0.8500000        Max   : 3000.000       
  RHS nonzeros       : Min   : 0.01666667       Max   : 5000.000       
CPLEX> CPXPARAM_Simplex_Tolerances_Feasibility          0.01
CPXPARAM_Parallel                                -1
CPXPARAM_DetTimeLimit                            75000
CPXPARAM_MIP_Tolerances_MIPGap                   0.01
CPXPARAM_MIP_Tolerances_Integrality              1.0000000000000001e-09
Parallel mode: opportunistic, using up to 4 threads for concurrent optimization.
Tried aggregator 1 time.
LP Presolve eliminated 21401 rows and 15891 columns.
Aggregator did 723 substitutions.
Reduced LP has 5391 rows, 9851 columns, and 31759 nonzeros.
Presolve time = 0.05 sec. (22.46 ticks)

Iteration log . . .
Iteration:     1   Dual objective     =             0.000000
Perturbation started.
Iteration:   101   Dual objective     =             0.000000
Iteration:   380   Dual objective     =             1.370057
Iteration:   656   Dual objective     =             1.916378
Iteration:   969   Dual objective     =             2.067740
Iteration:  1161   Dual objective     =             2.178839
Iteration:  1500   Dual objective     =             2.236398
Iteration:  1805   Dual objective     =             2.265858
Iteration:  2098   Dual objective     =             2.287152
Iteration:  2397   Dual objective     =             2.296605
Iteration:  2714   Dual objective     =          3446.296947
Iteration:  3086   Dual objective     =          3446.306272
Iteration:  3469   Dual objective     =          5883.792103
Iteration:  3745   Dual objective     =         23343.222303
Iteration:  4113   Dual objective     =         33615.795032
Removing perturbation.

Dual simplex solved model.


Dual simplex - Optimal:  Objective =  3.4230694877e+04
Solution time =    0.17 sec.  Iterations = 4516 (0)
Deterministic time = 95.43 ticks  (554.84 ticks/sec)

CPLEX> Solution written to file 'C:\Users\llavi\Desktop\test919\logs\tmpyc6o249m.cplex.sol'.
CPLEX> Exporting results... 
...storage offer mitigation file created
Converting model to MPEC...
...converted
NOTE: initial MIP solve with only storage competitive to get feasible solution
Solving...

Welcome to IBM(R) ILOG(R) CPLEX(R) Interactive Optimizer 12.8.0.0
  with Simplex, Mixed Integer & Barrier Optimizers
5725-A06 5725-A29 5724-Y48 5724-Y49 5724-Y54 5724-Y55 5655-Y21
Copyright IBM Corp. 1988, 2017.  All Rights Reserved.

Type 'help' for a list of available commands.
Type 'help' followed by a command name for more
information on commands.

CPLEX> Logfile 'cplex.log' closed.
Logfile 'C:\Users\llavi\Desktop\test919\logs\tmp5g9lvgih.cplex.log' open.
CPLEX> New value for parallel optimization mode: -1
CPLEX> New value for mixed integer optimality gap tolerance: 0.01
CPLEX> New value for integrality tolerance: 1e-09
CPLEX> New value for feasibility tolerance: 0.01
CPLEX> New value for deterministic time limit in ticks: 75000
CPLEX> Problem 'C:\Users\llavi\Desktop\test919\logs\tmpp39cfqne.pyomo.lp' read.
Read time = 0.30 sec. (13.96 ticks)
CPLEX> Problem name         : C:\Users\llavi\Desktop\test919\logs\tmpp39cfqne.pyomo.lp
Objective sense      : Maximize
Variables            :   53805  [Nneg: 1,  Box: 22000,  Free: 4464,
                                 Binary: 27340]
Objective nonzeros   :    9085
Linear constraints   :  123205  [Less: 41346,  Greater: 59096,  Equal: 22763]
  Nonzeros           :  291712
  RHS nonzeros       :   67420

Variables            : Min LB: -5000.000        Max UB: 1000000.       
Objective nonzeros   : Min   : 0.01666667       Max   : 2500.000       
Linear constraints   :
  Nonzeros           : Min   : 0.01666667       Max   : 1000000.       
  RHS nonzeros       : Min   : 0.01666667       Max   : 1000000.       
CPLEX> CPXPARAM_Simplex_Tolerances_Feasibility          0.01
CPXPARAM_Parallel                                -1
CPXPARAM_DetTimeLimit                            75000
CPXPARAM_MIP_Tolerances_MIPGap                   0.01
CPXPARAM_MIP_Tolerances_Integrality              1.0000000000000001e-09
Tried aggregator 3 times.
MIP Presolve eliminated 88646 rows and 18999 columns.
MIP Presolve added 3362 rows and 0 columns.
MIP Presolve modified 23878 coefficients.
Aggregator did 12988 substitutions.
Reduced MIP has 24933 rows, 21267 columns, and 71067 nonzeros.
Reduced MIP has 8424 binaries, 0 generals, 0 SOSs, and 0 indicators.
Presolve time = 0.27 sec. (165.56 ticks)
Probing fixed 389 vars, tightened 2916 bounds.
Probing time = 3.23 sec. (891.31 ticks)
Tried aggregator 2 times.
MIP Presolve eliminated 880 rows and 779 columns.
MIP Presolve modified 2242 coefficients.
Aggregator did 31 substitutions.
Reduced MIP has 24022 rows, 20457 columns, and 68430 nonzeros.
Reduced MIP has 8035 binaries, 0 generals, 0 SOSs, and 0 indicators.
Presolve time = 0.13 sec. (56.03 ticks)
Probing time = 0.06 sec. (15.35 ticks)
Clique table members: 6366.
MIP emphasis: balance optimality and feasibility.
MIP search method: dynamic search.
Parallel mode: opportunistic, using up to 4 threads.
Root relaxation solution time = 0.61 sec. (423.42 ticks)

        Nodes                                         Cuts/
   Node  Left     Objective  IInf  Best Integer    Best Bound    ItCnt     Gap

      0     0        0.0000   622                      0.0000     2839         
*     0+    0                            0.0000        0.0000             0.00%
      0     0        cutoff              0.0000        0.0000     2839    0.00%
Elapsed time = 5.53 sec. (1928.98 ticks, tree = 0.01 MB, solutions = 1)

Root node processing (before b&c):
  Real time             =    5.55 sec. (1931.25 ticks)
Parallel b&c, 4 threads:
  Real time             =    0.00 sec. (0.00 ticks)
  Sync time (average)   =    0.00 sec.
  Wait time (average)   =    0.00 sec.
                          ------------
Total (root+branch&cut) =    5.55 sec. (1931.25 ticks)

Solution pool: 1 solution saved.

MIP - Integer optimal solution:  Objective =  1.4479155652e-09
Solution time =    5.55 sec.  Iterations = 2839  Nodes = 0
Deterministic time = 1931.40 ticks  (348.19 ticks/sec)

CPLEX> Incumbent solution written to file 'C:\Users\llavi\Desktop\test919\logs\tmp7e7edv1_.cplex.sol'.
CPLEX> NOTE: no warmstart specified for MIP iteration, default behavior is true
NOTE: resolving with all competitive generators using storage-only solution to warmstart
Solving...

Welcome to IBM(R) ILOG(R) CPLEX(R) Interactive Optimizer 12.8.0.0
  with Simplex, Mixed Integer & Barrier Optimizers
5725-A06 5725-A29 5724-Y48 5724-Y49 5724-Y54 5724-Y55 5655-Y21
Copyright IBM Corp. 1988, 2017.  All Rights Reserved.

Type 'help' for a list of available commands.
Type 'help' followed by a command name for more
information on commands.

CPLEX> Logfile 'cplex.log' closed.
Logfile 'C:\Users\llavi\Desktop\test919\logs\tmpxayecb_i.cplex.log' open.
CPLEX> New value for parallel optimization mode: -1
CPLEX> New value for mixed integer optimality gap tolerance: 0.01
CPLEX> New value for integrality tolerance: 1e-09
CPLEX> New value for feasibility tolerance: 0.01
CPLEX> New value for deterministic time limit in ticks: 75000
CPLEX> Problem 'C:\Users\llavi\Desktop\test919\logs\tmpdy5mqas4.pyomo.lp' read.
Read time = 0.25 sec. (13.98 ticks)
CPLEX> MIP start file 'C:\Users\llavi\Desktop\test919\logs\tmphhq2v00p.cplex.mst' read.
CPLEX> Problem name         : C:\Users\llavi\Desktop\test919\logs\tmpdy5mqas4.pyomo.lp
Objective sense      : Maximize
Variables            :   54525  [Nneg: 1,  Box: 22720,  Free: 4464,
                                 Binary: 27340]
Objective nonzeros   :    9781
Linear constraints   :  123205  [Less: 41346,  Greater: 59096,  Equal: 22763]
  Nonzeros           :  291712
  RHS nonzeros       :   67420

Variables            : Min LB: -5000.000        Max UB: 1000000.       
Objective nonzeros   : Min   : 0.01666667       Max   : 2500.000       
Linear constraints   :
  Nonzeros           : Min   : 0.01666667       Max   : 1000000.       
  RHS nonzeros       : Min   : 0.01666667       Max   : 1000000.       
CPLEX> CPXPARAM_Simplex_Tolerances_Feasibility          0.01
CPXPARAM_Parallel                                -1
CPXPARAM_DetTimeLimit                            75000
CPXPARAM_MIP_Tolerances_MIPGap                   0.01
CPXPARAM_MIP_Tolerances_Integrality              1.0000000000000001e-09
Warning:  No solution found from 1 MIP starts.
Retaining values of one MIP start for possible repair.
Tried aggregator 3 times.
MIP Presolve eliminated 88646 rows and 19719 columns.
MIP Presolve added 3362 rows and 0 columns.
MIP Presolve modified 23878 coefficients.
Aggregator did 12988 substitutions.
Reduced MIP has 24933 rows, 21267 columns, and 71067 nonzeros.
Reduced MIP has 8424 binaries, 0 generals, 0 SOSs, and 0 indicators.
Presolve time = 0.25 sec. (165.92 ticks)
Probing fixed 389 vars, tightened 2916 bounds.
Probing time = 3.17 sec. (891.31 ticks)
Tried aggregator 2 times.
MIP Presolve eliminated 880 rows and 779 columns.
MIP Presolve modified 2242 coefficients.
Aggregator did 31 substitutions.
Reduced MIP has 24022 rows, 20457 columns, and 68430 nonzeros.
Reduced MIP has 8035 binaries, 0 generals, 0 SOSs, and 0 indicators.
Presolve time = 0.11 sec. (56.04 ticks)
Probing time = 0.06 sec. (15.35 ticks)
Clique table members: 6366.
MIP emphasis: balance optimality and feasibility.
MIP search method: dynamic search.
Parallel mode: opportunistic, using up to 4 threads.
Root relaxation solution time = 0.38 sec. (185.57 ticks)

        Nodes                                         Cuts/
   Node  Left     Objective  IInf  Best Integer    Best Bound    ItCnt     Gap

      0     0   116951.6150  1707                 116951.6150     2858         
      0     0   112885.8155   620                   Cuts: 748     3205         
      0     0   112636.3411   532                   Cuts: 288     3348         
      0     0   112627.1402   482                   Cuts: 115     3396         
      0     0   112627.1402   469                    Cuts: 66     3411         
      0     0   112619.1903   451                    Cuts: 64     3433         
      0     0   112619.1903   443                    Cuts: 48     3441         
      0     0   112619.1903   435                    Cuts: 66     3449         
      0     0   112619.1903   428                    Cuts: 44     3456         
      0     0   112619.1903   428                    Cuts: 37     3456         
Repair heuristic found nothing.
      0     2   112619.1903   428                 111470.8894     3456         
Elapsed time = 26.44 sec. (10679.26 ticks, tree = 0.03 MB, solutions = 0)
     64    48    84748.8970   372                 111470.8894     4150         
    127    93    48969.0333   365                 111470.8894     5341         
    194   124    49037.2963   353                 111470.8894     6418         
    254   171    24544.7548   326                 111470.8894     7353         
    333   191   -25319.3935   282                 111470.8894     7963         
    431   242   -41681.1735   291                 111470.8894     8608         
    537   374   -35673.4560   232                 111470.8894     9061         
    693   480   -35673.4560   220                 111470.8894     9133         
    853   548   -22235.5196   221                 111470.8894     9137         
   1430  1279    infeasible                       111470.8894     9377         
Elapsed time = 31.52 sec. (13809.85 ticks, tree = 7.95 MB, solutions = 1)
*  1432  1233      integral     0   -40673.5342   111470.8894     9354  374.06%
   1616   906    47275.9514   346   -40673.5342   109244.0400    10966  368.59%
   1827  1033    18149.8245   262   -40673.5342   109244.0400    11734  368.59%
   2009  1142    55789.3973   330   -40673.5342   109244.0400    14859  368.59%
   2277  1218   -13501.8841   223   -40673.5342   108878.7053    13740  367.69%
   2562  1244    35254.8846   233   -40673.5342   108116.5989    15337  365.82%
   2766  1585    64935.0254   352   -40673.5342   108116.5989    17118  365.82%
   2783  1875    53426.6413   119   -40673.5342    64727.5850    28711  259.14%
   2928    25    30156.1658   113   -40673.5342    60657.5601    29314  249.13%
   3175   168    51148.5050   122   -40673.5342    59194.7672    31416  245.54%
   3418   455        cutoff         -40673.5342    52535.1619    38179  229.16%
Elapsed time = 70.11 sec. (28991.49 ticks, tree = 3.87 MB, solutions = 1)
   3653   552     4111.1760    78   -40673.5342    51848.1771    40260  227.47%
   3880   728     8531.2660   134   -40673.5342    51848.1771    44053  227.47%
   4004   873   -34160.8892    86   -40673.5342    51848.1771    47074  227.47%
   4200   907    -7860.8238    61   -40673.5342    48689.6247    48499  219.71%
   4473  1093    31476.1691   107   -40673.5342    48012.0986    52785  218.04%
   4774  1212   -36623.5425    89   -40673.5342    46969.8719    54599  215.48%
   5088  1546   -39054.6132    86   -40673.5342    43909.6184    62419  207.96%
   5386  1622   -10385.2688   105   -40673.5342    42917.8035    63548  205.52%
   5716  2043   -30131.7961    88   -40673.5342    40904.1460    73233  200.57%
   6012  2137   -26377.8356    47   -40673.5342    39586.0068    74660  197.33%
Elapsed time = 91.39 sec. (38579.09 ticks, tree = 18.64 MB, solutions = 1)
   6359  2331    -9791.9647   101   -40673.5342    38456.8492    79500  194.55%
   6672  2723    10195.2445   149   -40673.5342    37537.8989    88446  192.29%
   6957  2809   -19453.0783    90   -40673.5342    36985.7179    89784  190.93%
   7238  3004   -38764.1612    45   -40673.5342    35292.6353    95841  186.77%
   7549  3185    -5454.6431   110   -40673.5342    34588.7912   101786  185.04%
   7810  3451   -24161.0904    31   -40673.5342    31733.5620   108450  178.02%
   8090  3654   -37491.9735    82   -40673.5342    30820.7005   113785  175.78%
   8372  3783     6256.5063   106   -40673.5342    30095.0887   116796  173.99%
   8699  4026     9310.5809   106   -40673.5342    29943.8793   124109  173.62%
   8998  4087   -36326.9007    50   -40673.5342    29378.8728   125093  172.23%
Elapsed time = 114.08 sec. (48150.38 ticks, tree = 34.25 MB, solutions = 1)
   9084  4179   -38389.9300    35   -40673.5342    29193.0874   128220  171.77%
   9200  4418   -19531.7701   126   -40673.5342    28838.7370   134437  170.90%
   9469  4392   -40200.3194    79   -40673.5342    28838.7370   133673  170.90%
   9778  4555   -29540.0633    58   -40673.5342    28666.4007   139319  170.48%
  10076  4875   -22556.3135   103   -40673.5342    27747.2482   150422  168.22%
  10360  4916    23392.1700   124   -40673.5342    27747.2482   152031  168.22%
  10675  5173    -4606.8185   148   -40673.5342    26569.9132   159385  165.32%
  10961  5272        cutoff         -40673.5342    25713.5571   163218  163.22%
  11260  5518   -39020.5819   117   -40673.5342    25402.8424   173265  162.46%
  11524  5583   -19076.5304   105   -40673.5342    25128.8066   176625  161.78%
Elapsed time = 136.20 sec. (57800.56 ticks, tree = 45.38 MB, solutions = 1)
  11813  5741   -34925.0541    88   -40673.5342    23985.3791   184336  158.97%
  12077  5829   -34135.6292   105   -40673.5342    23338.1572   188924  157.38%
  12368  5975   -22443.7011    14   -40673.5342    22617.9809   193457  155.61%
  12608  6225   -22191.4573    77   -40673.5342    21914.9272   200744  153.88%
  12817  6290    -6813.1606   132   -40673.5342    21914.9272   202844  153.88%
  12938  6434    -9163.1543    99   -40673.5342    21914.9272   206998  153.88%
  13091  6533    infeasible         -40673.5342    21914.9272   210755  153.88%
  13308  6546   -21961.1174    78   -40673.5342    21914.9272   210818  153.88%
  13551  6631     1476.6480   120   -40673.5342    21914.9272   213201  153.88%
  13780  6631    -4857.7042   108   -40673.5342    21914.9272   213983  153.88%
Elapsed time = 158.09 sec. (67360.64 ticks, tree = 55.58 MB, solutions = 1)
  14045  6687   -40615.4927    42   -40673.5342    21914.9272   215303  153.88%
  14249  6725     -636.8966    57   -40673.5342    21914.9272   216222  153.88%
  14474  6858     1743.9154   128   -40673.5342    21914.9272   219103  153.88%
  14631  7049     6654.3306   108   -40673.5342    21914.9272   224343  153.88%
  14770  7089    -1811.7861    83   -40673.5342    21914.9272   225268  153.88%
  14927  7130   -17036.9868   111   -40673.5342    21914.9272   227051  153.88%
  15036  6526        cutoff         -40673.5342    21914.9272   210324  153.88%

GUB cover cuts applied:  1
Clique cuts applied:  10
Cover cuts applied:  27
Implied bound cuts applied:  31
Flow cuts applied:  1341
Mixed integer rounding cuts applied:  219
Gomory fractional cuts applied:  107

Root node processing (before b&c):
  Real time             =   26.23 sec. (10642.77 ticks)
Parallel b&c, 4 threads:
  Real time             =  143.30 sec. (64803.18 ticks)
  Sync time (average)   =    0.84 sec.
  Wait time (average)   =    0.02 sec.
                          ------------
Total (root+branch&cut) =  169.53 sec. (75445.96 ticks)

Solution pool: 1 solution saved.

MIP - Deterministic time limit exceeded, integer feasible:  Objective = -4.0673534196e+04
Current MIP best bound =  2.1914927238e+04 (gap = 62588.5, 153.88%)
Solution time =  169.53 sec.  Iterations = 245650  Nodes = 15038 (7717)
Deterministic time = 75446.11 ticks  (445.03 ticks/sec)

CPLEX> Incumbent solution written to file 'C:\Users\llavi\Desktop\test919\logs\tmpz0ojqfzo.cplex.sol'.
CPLEX> Exporting results... 
